experiment/data/hgs-res/Vrp-Set-Golden-n401/Vrp-Set-Golden-n401-hgs/0.hgs1.tour
Route #1: 65 105 145 185 186 187 227 267 307 347 387 386 346 306 266 226 225 265 305 345 385 384 344 304 264 224 223 263 303 343 383 382 342 302 262 222 182 183 184 144 104 64
Route #2: 71 70 69 68 108 109 110 111 151 150 149 189 190 191 231 271 311 351 391 390 350 310 270 230 229 269 309 349 389 388 348 308 268 228 188 148 147 146 106 107 67 66
Route #3: 33 34 35 36 37 38 39 40 1 2 3 4 5 6 7 8 9 10 11 12 13 14 15 16 17 18 19 20 21 22 23 24 25 26 27 28 29 30 31 32
Route #4: 77 76 75 74 114 115 116 117 157 197 237 277 317 357 397 396 356 316 276 236 235 275 315 355 395 394 354 314 274 234 233 273 313 353 393 392 352 312 272 232 192 193 194 195 196 156 155 154 153 152 112 113 73 72
Route #5: 43 42 41 80 79 119 120 81 82 83 123 122 121 160 159 199 200 161 201 241 281 321 361 400 360 320 280 240 239 279 319 359 399 398 358 318 278 238 198 158 118 78
Route #6: 45 85 125 165 166 167 207 247 287 327 367 366 326 286 246 206 205 245 285 325 365 364 324 284 244 204 203 243 283 323 363 362 322 282 242 202 162 163 164 124 84 44
Route #7: 46 47 87 86 126 127 128 168 208 248 288 328 368 369 329 289 249 209 210 250 290 330 370 371 331 291 251 211 171 170 169 129 130 131 91 90 89 88 48 49 50 51
Route #8: 52 53 54 94 93 92 132 133 173 172 212 252 292 332 372 373 333 293 253 213 214 254 294 334 374 375 335 295 255 215 216 256 296 336 376 377 337 297 257 217 177 176 175 174 134 135 136 137 97 96 95 55 56 57
Route #9: 58 59 60 100 99 98 138 178 218 258 298 338 378 379 339 299 259 219 220 260 300 340 380 381 341 301 261 221 181 180 179 139 140 141 142 143 103 102 101 61 62 63
Cost 10785.8
